p cnf 12 23
-12 11 3 0
-12 11 -3 0
-12 -7 -6 0
12 -6 -1 0
12 -4 2 0
11 8 -4 0
-10 9 3 0
10 -9 -2 0
10 -8 -6 0
10 -7 2 0
10 6 4 0
-10 6 4 0
-10 -4 -2 0
-9 7 5 0
9 7 2 0
9 6 1 0
-9 5 4 0
-8 7 5 0
-8 -7 3 0
8 6 -1 0
7 -6 5 0
-7 5 -3 0
4 3 -1 0
